50
1000
240
237
235
234
233
232
231
227
224
224
223
217
215
213
213
212
210
206
205
205
204
204
203
202
201
201
200
199
193
190
189
186
185
183
181
180
178
173
171
169
169
169
168
166
166
166
165
165
164
163
